
Gurobi 6.5.2 (linux64) logging started Sat 31 Mar 2018 05:54:05 PM PDT


Gurobi 6.5.2 (linux64) logging started Tue 03 Apr 2018 09:11:50 PM PDT


Gurobi 6.5.2 (linux64) logging started Wed 04 Apr 2018 04:14:28 PM PDT


Gurobi 6.5.2 (linux64) logging started Wed 04 Apr 2018 04:15:50 PM PDT


Gurobi 6.5.2 (linux64) logging started Wed 04 Apr 2018 04:24:34 PM PDT

